NAME: C106
COMMENT: converted from Solomon txt
TYPE: VRPTW
VEHICLES: 25
DIMENSION: 101
CAPACITY: 200
EDGE_WEIGHT_TYPE: EUC_2D
NODE_COORD_SECTION
1	40.0	50.0
2	45.0	68.0
3	45.0	70.0
4	42.0	66.0
5	42.0	68.0
6	42.0	65.0
7	40.0	69.0
8	40.0	66.0
9	38.0	68.0
10	38.0	70.0
11	35.0	66.0
12	35.0	69.0
13	25.0	85.0
14	22.0	75.0
15	22.0	85.0
16	20.0	80.0
17	20.0	85.0
18	18.0	75.0
19	15.0	75.0
20	15.0	80.0
21	30.0	50.0
22	30.0	52.0
23	28.0	52.0
24	28.0	55.0
25	25.0	50.0
26	25.0	52.0
27	25.0	55.0
28	23.0	52.0
29	23.0	55.0
30	20.0	50.0
31	20.0	55.0
32	10.0	35.0
33	10.0	40.0
34	8.0	40.0
35	8.0	45.0
36	5.0	35.0
37	5.0	45.0
38	2.0	40.0
39	0.0	40.0
40	0.0	45.0
41	35.0	30.0
42	35.0	32.0
43	33.0	32.0
44	33.0	35.0
45	32.0	30.0
46	30.0	30.0
47	30.0	32.0
48	30.0	35.0
49	28.0	30.0
50	28.0	35.0
51	26.0	32.0
52	25.0	30.0
53	25.0	35.0
54	44.0	5.0
55	42.0	10.0
56	42.0	15.0
57	40.0	5.0
58	40.0	15.0
59	38.0	5.0
60	38.0	15.0
61	35.0	5.0
62	50.0	30.0
63	50.0	35.0
64	50.0	40.0
65	48.0	30.0
66	48.0	40.0
67	47.0	35.0
68	47.0	40.0
69	45.0	30.0
70	45.0	35.0
71	95.0	30.0
72	95.0	35.0
73	53.0	30.0
74	92.0	30.0
75	53.0	35.0
76	45.0	65.0
77	90.0	35.0
78	88.0	30.0
79	88.0	35.0
80	87.0	30.0
81	85.0	25.0
82	85.0	35.0
83	75.0	55.0
84	72.0	55.0
85	70.0	58.0
86	68.0	60.0
87	66.0	55.0
88	65.0	55.0
89	65.0	60.0
90	63.0	58.0
91	60.0	55.0
92	60.0	60.0
93	67.0	85.0
94	65.0	85.0
95	65.0	82.0
96	62.0	80.0
97	60.0	80.0
98	60.0	85.0
99	58.0	75.0
100	55.0	80.0
101	55.0	85.0
DEMAND_SECTION
1	0
2	10
3	30
4	10
5	10
6	10
7	20
8	20
9	20
10	10
11	10
12	10
13	20
14	30
15	10
16	40
17	40
18	20
19	20
20	10
21	10
22	20
23	20
24	10
25	10
26	40
27	10
28	10
29	20
30	10
31	10
32	20
33	30
34	40
35	20
36	10
37	10
38	20
39	30
40	20
41	10
42	10
43	20
44	10
45	10
46	10
47	30
48	10
49	10
50	10
51	10
52	10
53	10
54	20
55	40
56	10
57	30
58	40
59	30
60	10
61	20
62	10
63	20
64	50
65	10
66	10
67	10
68	10
69	10
70	10
71	30
72	20
73	10
74	10
75	50
76	20
77	10
78	10
79	20
80	10
81	10
82	30
83	20
84	10
85	20
86	30
87	10
88	20
89	30
90	10
91	10
92	10
93	20
94	40
95	10
96	30
97	10
98	30
99	20
100	10
101	20
DEPOT_SECTION
1
TIME_WINDOW_SECTION
1	0.0	1236.0
2	890.0	989.0
3	816.0	879.0
4	55.0	156.0
5	703.0	806.0
6	15.0	60.0
7	559.0	764.0
8	172.0	223.0
9	250.0	329.0
10	489.0	650.0
11	361.0	406.0
12	450.0	503.0
13	647.0	726.0
14	30.0	95.0
15	571.0	616.0
16	392.0	421.0
17	478.0	525.0
18	105.0	142.0
19	172.0	261.0
20	274.0	349.0
21	10.0	77.0
22	918.0	961.0
23	806.0	889.0
24	739.0	770.0
25	55.0	154.0
26	172.0	221.0
27	612.0	711.0
28	264.0	313.0
29	553.0	586.0
30	365.0	398.0
31	452.0	501.0
32	204.0	233.0
33	31.0	189.0
34	42.0	203.0
35	715.0	852.0
36	251.0	376.0
37	648.0	733.0
38	365.0	452.0
39	474.0	527.0
40	541.0	650.0
41	240.0	345.0
42	123.0	278.0
43	19.0	225.0
44	16.0	153.0
45	338.0	433.0
46	513.0	628.0
47	415.0	542.0
48	872.0	1127.0
49	599.0	726.0
50	917.0	1126.0
51	779.0	916.0
52	695.0	816.0
53	857.0	1024.0
54	221.0	412.0
55	96.0	347.0
56	35.0	233.0
57	347.0	474.0
58	35.0	172.0
59	403.0	602.0
60	521.0	870.0
61	487.0	704.0
62	422.0	719.0
63	217.0	362.0
64	142.0	247.0
65	567.0	758.0
66	34.0	171.0
67	794.0	907.0
68	12.0	226.0
69	716.0	795.0
70	873.0	1012.0
71	266.0	577.0
72	181.0	472.0
73	402.0	553.0
74	345.0	684.0
75	294.0	471.0
76	951.0	1114.0
77	153.0	310.0
78	450.0	767.0
79	50.0	237.0
80	567.0	832.0
81	713.0	876.0
82	47.0	331.0
83	311.0	478.0
84	127.0	476.0
85	349.0	632.0
86	476.0	691.0
87	67.0	344.0
88	25.0	256.0
89	546.0	807.0
90	630.0	909.0
91	20.0	293.0
92	769.0	956.0
93	229.0	580.0
94	442.0	551.0
95	227.0	394.0
96	163.0	272.0
97	36.0	291.0
98	469.0	714.0
99	30.0	227.0
100	595.0	968.0
101	493.0	880.0
SERVICE_TIME_SECTION
1	0.0
2	90.0
3	90.0
4	90.0
5	90.0
6	90.0
7	90.0
8	90.0
9	90.0
10	90.0
11	90.0
12	90.0
13	90.0
14	90.0
15	90.0
16	90.0
17	90.0
18	90.0
19	90.0
20	90.0
21	90.0
22	90.0
23	90.0
24	90.0
25	90.0
26	90.0
27	90.0
28	90.0
29	90.0
30	90.0
31	90.0
32	90.0
33	90.0
34	90.0
35	90.0
36	90.0
37	90.0
38	90.0
39	90.0
40	90.0
41	90.0
42	90.0
43	90.0
44	90.0
45	90.0
46	90.0
47	90.0
48	90.0
49	90.0
50	90.0
51	90.0
52	90.0
53	90.0
54	90.0
55	90.0
56	90.0
57	90.0
58	90.0
59	90.0
60	90.0
61	90.0
62	90.0
63	90.0
64	90.0
65	90.0
66	90.0
67	90.0
68	90.0
69	90.0
70	90.0
71	90.0
72	90.0
73	90.0
74	90.0
75	90.0
76	90.0
77	90.0
78	90.0
79	90.0
80	90.0
81	90.0
82	90.0
83	90.0
84	90.0
85	90.0
86	90.0
87	90.0
88	90.0
89	90.0
90	90.0
91	90.0
92	90.0
93	90.0
94	90.0
95	90.0
96	90.0
97	90.0
98	90.0
99	90.0
100	90.0
101	90.0
EOF
